0 23 60 36 26 86 38 53 62 32 0 25 
23 0 18 14 25 35 22 39 7 12 20 3 
60 18 0 1 74 56 56 99 35 12 4 90 
36 14 1 0 26 9 27 5 69 30 86 16 
26 25 74 26 0 67 83 38 55 46 93 43 
86 35 56 9 67 0 91 45 37 68 33 79 
38 22 56 27 83 91 0 90 96 8 92 9 
53 39 99 5 38 45 90 0 36 78 2 88 
62 7 35 69 55 37 96 36 0 39 78 78 
32 12 12 30 46 68 8 78 39 0 59 83 
0 20 4 86 93 33 92 2 78 59 0 9 
25 3 90 16 43 79 9 88 78 83 9 0 
